Route #1:
Route #2: 25
Route #3: 13 12
Route #4: 29
Route #5: 5
Route #6: 31 16
Route #7: 6 9 28 8 11 3 26
Route #8: 14
Route #9: 20 23
Route #10: 30 19 10 18 15 27 24
Route #11: 1 21 17
Route #12: 7 4 22 2

Cost: 2042.161721673524
